
  32    1
  10

   0   0   2 2 5 
   8   1   3 6 4 3 
   4   2   5 14 10 9 8 7 
   7   6   4 13 12 9 8 
   5   7   3 14 12 8 
   1   8   2 12 8 
   8   5   3 17 12 11 
   1   6   2 17 11 
  10   6   3 19 17 15 
   6   5   2 15 13 
   1   5   2 19 15 
   6  10   4 22 21 19 16 
   6   4   4 22 21 19 16 
   2   9   1 15 
   7   6   3 22 21 16 
   2   8   3 25 24 18 
   2   6   3 24 21 18 
   6   9   2 23 20 
   6   4   2 24 20 
   5   4   4 31 30 28 26 
  10   8   2 30 23 
   6   5   4 30 29 28 27 
   3   6   3 29 28 27 
   9   5   3 29 28 27 
   1  10   3 30 28 27 
   7   4   2 29 27 
  10   3   1 32
   2   8   1 32
   2  10   1 32
   4   5   1 32
   2   5   1 32
   0   0   0 
